
;this file is automatically generated: Sun Oct 25 10:43:48 CST 2020

;declarations generated

(declare-fun oclExcludes ( Int Int) Bool)
(declare-fun Cardinality ( Int) Int)
(declare-fun class4_Class4IntAttr3 ( Int) Int)
(declare-fun class4_Class4IntAttr2 ( Int) Int)
(declare-fun type_220f26b2_2101_4f0f_a97c_59a494a14f1f_Class4 ( Int) Bool)
(declare-fun oclSelect ( Int Bool) Int)
(declare-fun Enum0 ( Int) Int)
(declare-fun Enum1 ( Int) Int)
(declare-fun container_ ( Int) Int)
(declare-fun obj_208d8b3e_d3ef_4e46_8275_a960a3aad9de ( Int) Int)
(declare-fun oclIncludes ( Int Int) Bool)
(declare-fun ObjAt ( Int Int) Int)

;formula(s) generated
(assert (! (forall ((c4_2 Int)(c4_1 Int)) (=> (and ( type_220f26b2_2101_4f0f_a97c_59a494a14f1f_Class4 c4_1 )  ( type_220f26b2_2101_4f0f_a97c_59a494a14f1f_Class4 c4_2 ) ) (>= ( class4_Class4IntAttr2 ( obj_208d8b3e_d3ef_4e46_8275_a960a3aad9de c4_1 )  )  ( class4_Class4IntAttr3 ( obj_208d8b3e_d3ef_4e46_8275_a960a3aad9de c4_2 )  ) ))):named l0))
(assert (! (forall ((c1 Int)(c2 Int)) (=> (and ( type_220f26b2_2101_4f0f_a97c_59a494a14f1f_Class4 c1 )  ( type_220f26b2_2101_4f0f_a97c_59a494a14f1f_Class4 c2 ) ) (forall ((v Int)) (=> ( type_220f26b2_2101_4f0f_a97c_59a494a14f1f_Class4 v )  (<= ( class4_Class4IntAttr3 ( obj_208d8b3e_d3ef_4e46_8275_a960a3aad9de v )  )  ( class4_Class4IntAttr2 ( obj_208d8b3e_d3ef_4e46_8275_a960a3aad9de c1 )  ) ))))):named l1))
(assert (exists ((o Int)) ( type_220f26b2_2101_4f0f_a97c_59a494a14f1f_Class4 ( obj_208d8b3e_d3ef_4e46_8275_a960a3aad9de o )  ) ))

 ;end of formula 